CMPL model generation - running

CMPL version: 1.11.0
Authors: Thomas Schleiff, Mike Steglich
Distributed under the GPLv3 

create model instance ...
write model instance ...
CMPL model generation - finished

Solver - running


Welcome to IBM(R) ILOG(R) CPLEX(R) Interactive Optimizer 12.7.1.0
  with Simplex, Mixed Integer & Barrier Optimizers
5725-A06 5725-A29 5724-Y48 5724-Y49 5724-Y54 5724-Y55 5655-Y21
Copyright IBM Corp. 1988, 2017.  All Rights Reserved.

Type 'help' for a list of available commands.
Type 'help' followed by a command name for more
information on commands.

CPLEX> Specified objective sense: MINIMIZE
Selected objective  name:  line[1]
Selected RHS        name:  RHS
Selected bound      name:  BOUND
Problem '/tmp/cmpl.T24462.mps' read.
Read time = 0.06 sec. (10.13 ticks)
CPLEX> CPXPARAM_Read_APIEncoding                        "UTF-8"
Tried aggregator 3 times.
MIP Presolve eliminated 23886 rows and 37348 columns.
MIP Presolve modified 425 coefficients.
Aggregator did 863 substitutions.
Reduced MIP has 3173 rows, 4244 columns, and 12552 nonzeros.
Reduced MIP has 4034 binaries, 0 generals, 0 SOSs, and 0 indicators.
Presolve time = 0.07 sec. (50.54 ticks)
Found incumbent of value 1661.052373 after 0.12 sec. (87.03 ticks)
Probing fixed 21 vars, tightened 0 bounds.
Probing time = 0.01 sec. (5.56 ticks)
Tried aggregator 1 time.
MIP Presolve eliminated 0 rows and 21 columns.
MIP Presolve modified 128 coefficients.
Reduced MIP has 3173 rows, 4223 columns, and 12510 nonzeros.
Reduced MIP has 4223 binaries, 0 generals, 0 SOSs, and 0 indicators.
Presolve time = 0.03 sec. (10.62 ticks)
Probing time = 0.01 sec. (2.87 ticks)
Clique table members: 7701.
MIP emphasis: balance optimality and feasibility.
MIP search method: dynamic search.
Parallel mode: none, using 1 thread.
Root relaxation solution time = 0.01 sec. (8.16 ticks)

        Nodes                                         Cuts/
   Node  Left     Objective  IInf  Best Integer    Best Bound    ItCnt     Gap

*     0+    0                         1661.0524      -12.1050           100.73%
      0     0      418.8530     3     1661.0524      418.8530      317   74.78%
*     0+    0                          418.8776      418.8530             0.01%

Root node processing (before b&c):
  Real time             =    0.20 sec. (129.20 ticks)
Sequential b&c:
  Real time             =    0.00 sec. (0.00 ticks)
                          ------------
Total (root+branch&cut) =    0.20 sec. (129.20 ticks)

Solution pool: 2 solutions saved.

MIP - Integer optimal, tolerance (0.0001/1e-06):  Objective =  4.1887757900e+02
Current MIP best bound =  4.1885298400e+02 (gap = 0.024595, 0.01%)
Solution time =    0.20 sec.  Iterations = 317  Nodes = 0 (1)
Deterministic time = 129.32 ticks  (632.16 ticks/sec)

CPLEX> Incumbent solution written to file '/tmp/cmpl.T24462.gsol'.
CPLEX> 
CMPL: Time used for model generation: 1 seconds
CMPL: Time used for solving the model: 1 seconds


Solution written to ASCII file: results/output_generated_conf_0.7/2016-02-01-5/fair-nonlinear.sol

Solver - finished
